Version identifier: 22.1.0.0 | 2022-03-09 | 1a383f8ce
CPXPARAM_Threads                                 1
CPXPARAM_MIP_Strategy_VariableSelect             3
CPXPARAM_TimeLimit                               598.47133405199997
1 of 1 MIP starts provided solutions.
MIP start 'm1' defined initial solution with objective 189.0000.
Tried aggregator 2 times.
MIP Presolve eliminated 37 rows and 1 columns.
MIP Presolve added 32 rows and 8 columns.
MIP Presolve modified 73 coefficients.
Aggregator did 8 substitutions.
Reduced MIP has 1213 rows, 5200 columns, and 76896 nonzeros.
Reduced MIP has 5200 binaries, 0 generals, 0 SOSs, and 0 indicators.
Presolve time = 0.10 sec. (133.02 ticks)
Probing time = 0.02 sec. (15.17 ticks)
Tried aggregator 1 time.
Detecting symmetries...
MIP Presolve modified 14 coefficients.
Reduced MIP has 1213 rows, 5200 columns, and 77272 nonzeros.
Reduced MIP has 5200 binaries, 0 generals, 0 SOSs, and 0 indicators.
Presolve time = 0.07 sec. (86.53 ticks)
Probing time = 0.02 sec. (15.22 ticks)
Clique table members: 800.
MIP emphasis: balance optimality and feasibility.
MIP search method: dynamic search.
Parallel mode: none, using 1 thread.
Root relaxation solution time = 0.89 sec. (1058.22 ticks)

        Nodes                                         Cuts/
   Node  Left     Objective  IInf  Best Integer    Best Bound    ItCnt     Gap

*     0+    0                          189.0000    20100.0000              --- 
      0     0      200.0000   837      189.0000      200.0000     4183    5.82%
      0     0      200.0000   168      189.0000    Cliques: 1     4494    5.82%
      0     0      200.0000   388      189.0000      Cuts: 88     7559    5.82%
      0     0      200.0000   228      189.0000       Cuts: 3     8346    5.82%
Detecting symmetries...
      0     2      200.0000   189      189.0000      200.0000     8346    5.82%
Elapsed time = 19.04 sec. (19337.13 ticks, tree = 0.01 MB, solutions = 1)
      1     3      200.0000   741      189.0000      200.0000    15809    5.82%
      2     4      200.0000   713      189.0000      200.0000    19668    5.82%
      3     5      200.0000   586      189.0000      200.0000    19895    5.82%
      4     6      200.0000   478      189.0000      200.0000    19946    5.82%
      5     7      200.0000   439      189.0000      200.0000    24227    5.82%
      6     8      200.0000   472      189.0000      200.0000    25166    5.82%
      7     9      200.0000   615      189.0000      200.0000    26241    5.82%
      8    10      200.0000   458      189.0000      200.0000    32234    5.82%
      9    11      200.0000   545      189.0000      200.0000    33497    5.82%
     11    13      200.0000   532      189.0000      200.0000    35632    5.82%
Elapsed time = 27.68 sec. (28565.40 ticks, tree = 0.04 MB, solutions = 1)
     15    17      200.0000   476      189.0000      200.0000    37645    5.82%
     19    21      200.0000   473      189.0000      200.0000    40664    5.82%
     21    23      200.0000   497      189.0000      200.0000    41806    5.82%
     25    27      200.0000   490      189.0000      200.0000    43644    5.82%
     28    30      200.0000   462      189.0000      200.0000    48768    5.82%
     31    33      200.0000   455      189.0000      200.0000    50107    5.82%
     35    37      200.0000   435      189.0000      200.0000    55639    5.82%
     38    40      200.0000   375      189.0000      200.0000    58557    5.82%
     42    44      200.0000   441      189.0000      200.0000    62793    5.82%
     45    47      200.0000   429      189.0000      200.0000    65737    5.82%
Elapsed time = 38.33 sec. (39808.88 ticks, tree = 0.11 MB, solutions = 1)
     49    51      200.0000   390      189.0000      200.0000    70810    5.82%
     52    54      200.0000   362      189.0000      200.0000    73302    5.82%
     55    56      200.0000   399      189.0000      200.0000    80242    5.82%
     59    60      200.0000   320      189.0000      200.0000    87250    5.82%
     63    63      200.0000   303      189.0000      200.0000    91868    5.82%
     69    66      200.0000   193      189.0000      200.0000    96456    5.82%
     72    68      200.0000   122      189.0000      200.0000   103192    5.82%
     75    70      200.0000   139      189.0000      200.0000   112628    5.82%
     81    74      198.0000   171      189.0000      200.0000   115964    5.82%
     92    75      198.0000   178      189.0000      200.0000   117810    5.82%
Elapsed time = 49.53 sec. (50605.73 ticks, tree = 0.17 MB, solutions = 1)
    100    77      198.0000   177      189.0000      200.0000   120713    5.82%
    104    78      200.0000   122      189.0000      200.0000   124270    5.82%
    111    81      199.0000   246      189.0000      200.0000   128084    5.82%
    120    86      198.0000   245      189.0000      200.0000   130783    5.82%
    129    91      199.0000   239      189.0000      200.0000   133584    5.82%
    139    96      198.0000   278      189.0000      200.0000   136515    5.82%
    148   101      199.0000   246      189.0000      200.0000   139442    5.82%
    156   107      199.0000   254      189.0000      200.0000   141624    5.82%
    165   111      199.0000   244      189.0000      200.0000   145184    5.82%
    176   118      198.0000   221      189.0000      200.0000   147943    5.82%
Elapsed time = 60.40 sec. (61007.29 ticks, tree = 0.27 MB, solutions = 1)
    184   118      200.0000   232      189.0000      200.0000   151473    5.82%
    187   120      200.0000   189      189.0000      200.0000   156495    5.82%
    193   123      199.0000   224      189.0000      200.0000   159346    5.82%
    201   128      199.0000   232      189.0000      200.0000   161752    5.82%
    209   132      199.0000   246      189.0000      200.0000   165399    5.82%
    218   138      198.0000   278      189.0000      200.0000   167465    5.82%
    229   141      198.0000   187      189.0000      200.0000   169673    5.82%
    242   140      200.0000   192      189.0000      200.0000   176127    5.82%
    247   145      200.0000   199      189.0000      200.0000   179033    5.82%
    252   149      199.0000   259      189.0000      200.0000   182082    5.82%
Elapsed time = 71.72 sec. (71732.77 ticks, tree = 0.34 MB, solutions = 1)
    260   155      198.0000   169      189.0000      200.0000   184182    5.82%
    273   156      198.0000   162      189.0000      200.0000   186501    5.82%
    287   155    infeasible            189.0000      200.0000   189610    5.82%
    297   156      200.0000   120      189.0000      200.0000   193362    5.82%
    304   160      199.0000   196      189.0000      200.0000   197335    5.82%
    314   161    infeasible            189.0000      200.0000   199741    5.82%
    325   162      199.0000   174      189.0000      200.0000   202226    5.82%
    337   164      199.0000   170      189.0000      200.0000   204415    5.82%
    349   163      199.0000   260      189.0000      200.0000   207772    5.82%
    355   167      200.0000   146      189.0000      200.0000   211117    5.82%
Elapsed time = 82.58 sec. (82172.86 ticks, tree = 0.38 MB, solutions = 1)
    361   170      200.0000   163      189.0000      200.0000   214931    5.82%
    366   174      200.0000   145      189.0000      200.0000   218174    5.82%
    374   178      198.0000   182      189.0000      200.0000   221821    5.82%
    384   184      198.0000   143      189.0000      200.0000   223313    5.82%
    396   184      198.0000   233      189.0000      200.0000   226267    5.82%
    404   190      198.0000    99      189.0000      200.0000   227651    5.82%
    419   191      198.0000    93      189.0000      200.0000   229961    5.82%
    429   193      199.0000   280      189.0000      200.0000   232349    5.82%
    438   199      198.0000   216      189.0000      200.0000   234945    5.82%
    453   200      198.0000   233      189.0000      200.0000   237338    5.82%
Elapsed time = 93.15 sec. (92315.24 ticks, tree = 0.45 MB, solutions = 1)
    469   200      198.0000   230      189.0000      200.0000   239354    5.82%
    482   201      198.0000   190      189.0000      200.0000   241709    5.82%
    497   200      198.0000   216      189.0000      200.0000   244590    5.82%
    512   200      200.0000   180      189.0000      200.0000   246352    5.82%
    519   204      200.0000   128      189.0000      200.0000   250142    5.82%
    525   207      200.0000   167      189.0000      200.0000   253893    5.82%
    534   210      198.0000   209      189.0000      200.0000   258005    5.82%
    544   215      199.0000   270      189.0000      200.0000   261184    5.82%
    555   218    infeasible            189.0000      200.0000   264108    5.82%
    568   220      198.0000   239      189.0000      200.0000   266806    5.82%
Elapsed time = 104.08 sec. (102657.53 ticks, tree = 0.50 MB, solutions = 1)
    581   219    infeasible            189.0000      200.0000   270592    5.82%
    591   222      199.0000   255      189.0000      200.0000   273361    5.82%
    599   227      198.0000   171      189.0000      200.0000   275935    5.82%
    610   228      198.0000   177      189.0000      200.0000   278843    5.82%
    623   228      200.0000   183      189.0000      200.0000   282352    5.82%
    629   231      199.0000   285      189.0000      200.0000   286042    5.82%
    635   235      200.0000   172      189.0000      200.0000   288995    5.82%
    640   238      200.0000   150      189.0000      200.0000   292474    5.82%
    647   241      199.0000   265      189.0000      200.0000   296131    5.82%
    657   249      198.0000   128      189.0000      200.0000   298142    5.82%
Elapsed time = 114.58 sec. (112853.40 ticks, tree = 0.56 MB, solutions = 1)
    665   252      199.0000   276      189.0000      200.0000   301191    5.82%
    676   259      198.0000   264      189.0000      200.0000   302720    5.82%
    688   260      198.0000   245      189.0000      200.0000   304981    5.82%
    702   261      198.0000   262      189.0000      200.0000   306581    5.82%
    714   261      198.0000   241      189.0000      200.0000   309302    5.82%
    726   262      198.0000   118      189.0000      200.0000   311649    5.82%
    738   262      199.0000   280      189.0000      200.0000   315245    5.82%
    750   268    infeasible            189.0000      200.0000   317252    5.82%
    760   272      198.0000   151      189.0000      200.0000   318278    5.82%
    806   282      198.0000   234      189.0000      200.0000   328771    5.82%
Elapsed time = 128.33 sec. (125846.77 ticks, tree = 0.65 MB, solutions = 1)
    851   289    infeasible            189.0000      200.0000   339215    5.82%
    900   292      198.0000   211      189.0000      200.0000   349761    5.82%
    937   302    infeasible            189.0000      200.0000   360961    5.82%
    980   315      198.0000   190      189.0000      200.0000   370726    5.82%
*  1000+  321                          193.0000      200.0000             3.63%
   1012   326      199.0000   328      193.0000      200.0000   379857    3.63%
   1044   358      199.0000   316      193.0000      200.0000   381175    3.63%
   1076   390      199.0000   338      193.0000      200.0000   381721    3.63%
   1114   425      198.0000   245      193.0000      200.0000   384689    3.63%
   1154   461      198.0000   174      193.0000      200.0000   387904    3.63%
   1194   470      198.0000   176      193.0000      200.0000   396012    3.63%
Elapsed time = 169.80 sec. (164700.69 ticks, tree = 1.06 MB, solutions = 2)
   1237   482      199.0000   226      193.0000      200.0000   404080    3.63%
   1280   498      198.0000   216      193.0000      200.0000   411679    3.63%
   1320   512      198.0000   211      193.0000      200.0000   420172    3.63%
   1368   524      198.0000   279      193.0000      200.0000   429413    3.63%
   1413   533      198.0000   155      193.0000      200.0000   437592    3.63%
   1450   543    infeasible            193.0000      200.0000   449844    3.63%
*  1478+  548                          194.0000      200.0000             3.09%
   1479   550      199.0000   215      194.0000      200.0000   457590    3.09%
   1480   551      200.0000   172      194.0000      200.0000   457693    3.09%
   1519   562      199.0000   267      194.0000      200.0000   466981    3.09%
   1564   571    infeasible            194.0000      200.0000   475461    3.09%
Elapsed time = 214.86 sec. (206757.51 ticks, tree = 1.31 MB, solutions = 3)
   1605   576    infeasible            194.0000      200.0000   486042    3.09%
   1641   590      198.0000   236      194.0000      200.0000   496588    3.09%
   1686   600      199.0000   184      194.0000      200.0000   506023    3.09%
   1722   618      199.0000   258      194.0000      200.0000   512961    3.09%
   1757   653      198.0000   160      194.0000      200.0000   514827    3.09%
   1792   673      198.0000   249      194.0000      200.0000   522826    3.09%
   1830   682      199.0000   228      194.0000      200.0000   534008    3.09%
   1869   694      198.0000   273      194.0000      200.0000   541486    3.09%
   1919   697      198.0000   219      194.0000      200.0000   551071    3.09%
   1957   705      199.0000   214      194.0000      200.0000   564721    3.09%
Elapsed time = 255.73 sec. (245217.84 ticks, tree = 1.61 MB, solutions = 3)
*  2000+  717                          195.0000      200.0000             2.56%
   2000   719      198.0000   118      195.0000      200.0000   573254    2.56%
   2042   734      198.0000   105      195.0000      200.0000   583529    2.56%
   2079   752      198.0000   146      195.0000      200.0000   593478    2.56%

Performing restart 1

Repeating presolve.
Tried aggregator 1 time.
MIP Presolve eliminated 0 rows and 195 columns.
MIP Presolve modified 14793 coefficients.
Reduced MIP has 1213 rows, 5005 columns, and 54153 nonzeros.
Reduced MIP has 5005 binaries, 0 generals, 0 SOSs, and 0 indicators.
Presolve time = 0.05 sec. (41.43 ticks)
Tried aggregator 1 time.
Reduced MIP has 1213 rows, 5005 columns, and 54153 nonzeros.
Reduced MIP has 5005 binaries, 0 generals, 0 SOSs, and 0 indicators.
Presolve time = 0.04 sec. (31.05 ticks)
Represolve time = 0.49 sec. (261.08 ticks)
   2110     0      200.0000   854      195.0000       Cuts: 5   607080    2.56%
   2110     0      200.0000   369      195.0000      Cuts: 10   609248    2.56%
   2110     0      200.0000   516      195.0000       Cuts: 6   611427    2.56%
   2110     0      200.0000   174      195.0000       Cuts: 6   614066    2.56%
   2110     0      200.0000   192      195.0000    Cliques: 1   614538    2.56%
   2110     0      200.0000   343      195.0000       Cuts: 3   615704    2.56%
   2110     0      200.0000   440      195.0000      Cuts: 21   618130    2.56%
*  2110+    0                          197.0000      200.0000             1.52%
   2110     0        cutoff            197.0000      200.0000   618130    1.52%
   2110     2      200.0000   111      197.0000      200.0000   618130    1.52%
   2113     5      200.0000   416      197.0000      200.0000   631114    1.52%
   2120    12      200.0000   323      197.0000      200.0000   642378    1.52%
   2130    22      200.0000   235      197.0000      200.0000   652391    1.52%
   2142    34      200.0000    92      197.0000      200.0000   664443    1.52%
   2149    41      200.0000   451      197.0000      200.0000   680682    1.52%
   2158    49      200.0000   127      197.0000      200.0000   698061    1.52%
Elapsed time = 324.70 sec. (316755.43 ticks, tree = 0.43 MB, solutions = 5)
   2168    56      199.0000   264      197.0000      200.0000   720829    1.52%
   2181    68      199.0000   174      197.0000      200.0000   734362    1.52%
   2203    79      199.0000    74      197.0000      200.0000   752031    1.52%
   2210    80      200.0000   161      197.0000      200.0000   763078    1.52%
   2220    88      199.0000   255      197.0000      200.0000   779794    1.52%
   2232    99      200.0000   216      197.0000      200.0000   794193    1.52%
   2249   112      200.0000   154      197.0000      200.0000   811468    1.52%
   2262   119      199.0000   231      197.0000      200.0000   834345    1.52%
   2277   130      199.0000   166      197.0000      200.0000   853521    1.52%
   2296   139      200.0000    86      197.0000      200.0000   870742    1.52%
Elapsed time = 375.06 sec. (364075.56 ticks, tree = 1.29 MB, solutions = 5)
   2306   148      199.0000   299      197.0000      200.0000   885907    1.52%
   2326   158    infeasible            197.0000      200.0000   901480    1.52%
   2363   163    infeasible            197.0000      200.0000   919497    1.52%
   2375   174      199.0000    82      197.0000      200.0000   930207    1.52%
   2398   179      199.0000   117      197.0000      200.0000   950427    1.52%
   2410   181      200.0000   209      197.0000      200.0000   966034    1.52%
   2425   195      199.0000   223      197.0000      200.0000   977696    1.52%
   2449   203      200.0000   145      197.0000      200.0000   994911    1.52%
   2461   215      200.0000   149      197.0000      200.0000  1007855    1.52%
   2472   223      200.0000   209      197.0000      200.0000  1027530    1.52%
Elapsed time = 418.76 sec. (404745.97 ticks, tree = 2.27 MB, solutions = 5)
   2488   227      200.0000   118      197.0000      200.0000  1048470    1.52%
   2507   230    infeasible            197.0000      200.0000  1071938    1.52%
   2526   235    infeasible            197.0000      200.0000  1093893    1.52%
   2537   242      199.0000   225      197.0000      200.0000  1108837    1.52%
   2553   246      199.0000   182      197.0000      200.0000  1127951    1.52%
   2571   246    infeasible            197.0000      200.0000  1151259    1.52%
   2590   247    infeasible            197.0000      200.0000  1173839    1.52%
   2603   252      200.0000    97      197.0000      200.0000  1187492    1.52%
   2615   264      200.0000   145      197.0000      200.0000  1198870    1.52%
   2626   275      200.0000   155      197.0000      200.0000  1213491    1.52%
Elapsed time = 460.41 sec. (444479.77 ticks, tree = 2.89 MB, solutions = 5)
   2639   281      200.0000   101      197.0000      200.0000  1231607    1.52%
   2651   284  -1.00000e+75    89      197.0000      200.0000  1253915    1.52%
   2663   290      199.0000   132      197.0000      200.0000  1274339    1.52%
   2670   292      200.0000    80      197.0000      200.0000  1281503    1.52%
   2680   302      200.0000   206      197.0000      200.0000  1296041    1.52%
   2694   311      199.0000   103      197.0000      200.0000  1314066    1.52%
   2707   318      200.0000   241      197.0000      200.0000  1327962    1.52%
   2710   320      199.0000   254      197.0000      200.0000  1331959    1.52%
   2726   328    infeasible            197.0000      200.0000  1339999    1.52%
   2753   337      199.0000    96      197.0000      200.0000  1341500    1.52%
Elapsed time = 507.09 sec. (489743.20 ticks, tree = 3.59 MB, solutions = 5)
   2768   346      200.0000   205      197.0000      200.0000  1356091    1.52%
   2809   358      200.0000    98      197.0000      200.0000  1389733    1.52%
   2816   365      200.0000   185      197.0000      200.0000  1410518    1.52%
   2831   375    infeasible            197.0000      200.0000  1425799    1.52%
   2847   378      200.0000   234      197.0000      200.0000  1443771    1.52%
   2856   386      200.0000   293      197.0000      200.0000  1457988    1.52%
   2877   401      199.0000   283      197.0000      200.0000  1466824    1.52%
   2900   418      199.0000   186      197.0000      200.0000  1477268    1.52%
Starting limited solution polishing.
   2919   429      199.0000   208      197.0000      200.0000  1484436    1.52%
   2956   436      200.0000   340      197.0000      200.0000  1496777    1.52%
Elapsed time = 548.72 sec. (530106.65 ticks, tree = 4.04 MB, solutions = 5)
   2976   453      199.0000   237      197.0000      200.0000  1503234    1.52%
   3010   457      199.0000   139      197.0000      200.0000  1515143    1.52%
   3036   464      199.0000   178      197.0000      200.0000  1527395    1.52%
   3069   469      200.0000   352      197.0000      200.0000  1538446    1.52%
   3088   488      200.0000   289      197.0000      200.0000  1543004    1.52%
   3110   509      199.0000   341      197.0000      200.0000  1546327    1.52%
   3140   539      199.0000   241      197.0000      200.0000  1547781    1.52%
   3172   571      199.0000   281      197.0000      200.0000  1549212    1.52%

Clique cuts applied:  9
Zero-half cuts applied:  10
Gomory fractional cuts applied:  1

Root node processing (before b&c):
  Real time             =   18.94 sec. (19258.23 ticks)
Sequential b&c:
  Real time             =  579.53 sec. (557643.51 ticks)
                          ------------
Total (root+branch&cut) =  598.47 sec. (576901.74 ticks)
Primal:	197
Dual:	200
Status:	Feasible
Time:	598.47
Sequence:
	23
	7
	15
	10
	16
	7
	21
	1
	19
	12
	14
	7
	21
	1
	20
	10
	14
	7
	23
	0
	18
	10
	16
	7
	7
	14
	8
	12
	14
	7
	21
	2
	18
	12
	14
	7
	22
	1
	18
	10
	14
	8
	21
	1
	18
	10
	16
	7
	11
	14
	7
	21
	1
	19
	12
	14
	7
	21
	2
	18
	12
	14
	7
	13
	14
	7
	21
	1
	20
	10
	14
	7
	21
	1
	19
	12
	14
	7
	10
	14
	9
	21
	1
	18
	10
	15
	7
	12
	14
	7
	19
	5
	18
	7
	3
	9
	18
	3
	18
	7
	6
	18
	7
	3
	18
	9
	14
	12
	7
	14
	10
	8
	14
	12
	18
	1
	21
	8
	14
	7
	18
	5
	20
	7
	14
	10
	16
	7
	19
	3
	18
	7
	14
	13
	7
	14
	10
	18
	2
	21
	7
	16
	10
	18
	0
	23
	7
	16
	10
	18
	2
	21
	7
	16
	3
	18
	7
	5
	9
	18
	3
	18
	7
	17
	7
	18
	3
	7
	20
	5
	18
	7
	3
	8
	18
	5
	7
	7
	15
	12
	7
	16
	10
	15
	7
	18
	5
	18
	7
	4
	18
	7
	14
	10
	16
	9
	10
